0 7828752
325 7525180
650 7328752
975 7272829
1300 7239408
1625 7197833
1950 7171116
2275 7147457
2600 7136888
2925 7118626
3250 7110176
3575 7104118
3900 7102702
4225 7101714
4550 7100849
4875 7100134
5200 7099931
5525 7099924
